
Gurobi 12.0.3 (linux64) logging started Fri Mar 27 13:40:43 2026

Set parameter LogFile to value "/home/solar-wind/WT_Solar_results_bigM100000_thread4/case24_ieee_rts_theta0.15_epsilon0.1_gurobi_seed10000_num_gen38_N_WDR200_load_scaling_factor1_EIFICA_T24_num_Solar5_num_WT10.txt"
Gurobi Optimizer version 12.0.3 build v12.0.3rc0 (linux64 - "Ubuntu 22.04.5 LTS")

CPU model: Intel(R) Xeon(R) Platinum 8378A CPU @ 3.00GHz, instruction set [SSE2|AVX|AVX2|AVX512]
Thread count: 32 physical cores, 64 logical processors, using up to 4 threads

Non-default parameters:
TimeLimit  14400
MIPGap  0.001
Seed  10000
Threads  4

Academic license 2721591 - for non-commercial use only - registered to fa___@mails.neu.edu.cn
Optimize a model with 624388 rows, 2025 columns and 51044968 nonzeros
Model fingerprint: 0x58675105
Model has 912 quadratic objective terms
Coefficient statistics:
  Matrix range     [2e-06, 6e+01]
  Objective range  [2e+01, 6e+01]
  QObjective range [4e-03, 2e-02]
  Bounds range     [0e+00, 0e+00]
  RHS range        [5e-02, 1e+03]
Presolve removed 438543 rows and 0 columns
Presolve time: 5.39s
Presolved: 185845 rows, 2899 columns, 3940364 nonzeros
Presolved model has 912 quadratic objective terms
Elapsed ordering time = 16s
Ordering time: 30.17s
Elapsed ordering time = 30s
Elapsed ordering time = 36s
Elapsed ordering time = 39s
Elapsed ordering time = 40s
Elapsed ordering time = 43s
Elapsed ordering time = 45s
Elapsed ordering time = 48s
Elapsed ordering time = 52s
Ordering time: 56.30s

Barrier statistics:
 Dense cols : 1097
 AA' NZ     : 1.929e+08
 Factor NZ  : 7.508e+08 (roughly 6.0 GB of memory)
 Factor Ops : 7.934e+12 (roughly 45 seconds per iteration)
 Threads    : 4

                  Objective                Residual
Iter       Primal          Dual         Primal    Dual     Compl     Time
   0   5.84698655e+08 -3.11338911e+08  3.70e+04 9.92e+02  9.92e+05   156s
   1   5.48590787e+08 -2.81571804e+08  3.55e+04 9.51e+02  9.51e+05   156s
   2   5.43007258e+08 -3.54134907e+08  3.52e+04 9.44e+02  9.47e+05   156s
   3   4.99537543e+08 -4.33447773e+08  3.33e+04 8.91e+02  9.13e+05   157s
   4   4.46519434e+08 -4.83327987e+08  3.09e+04 8.23e+02  8.67e+05   157s
   5   3.80747539e+08 -5.28938419e+08  2.77e+04 7.35e+02  8.07e+05   157s
   6   3.42162660e+08 -5.38127369e+08  2.58e+04 6.81e+02  7.48e+05   157s
   7   3.01207893e+08 -5.74386802e+08  2.36e+04 6.20e+02  7.02e+05   157s
   8   2.68517331e+08 -5.84744460e+08  2.17e+04 5.70e+02  6.46e+05   157s
   9   2.46323260e+08 -5.95174799e+08  2.04e+04 5.34e+02  6.07e+05   158s
  10   2.20659383e+08 -6.24039715e+08  1.88e+04 4.91e+02  5.72e+05   158s
  11   1.96050583e+08 -6.41648647e+08  1.72e+04 4.48e+02  5.23e+05   158s
  12   1.73052916e+08 -6.58983913e+08  1.57e+04 4.06e+02  4.75e+05   158s
  13   1.58809943e+08 -6.69484345e+08  1.47e+04 3.79e+02  4.44e+05   158s
  14   1.43124312e+08 -6.84032877e+08  1.35e+04 3.48e+02  4.08e+05   158s
  15   1.27800188e+08 -6.98775290e+08  1.24e+04 3.17e+02  3.72e+05   158s
  16   1.11255620e+08 -7.13293779e+08  1.11e+04 2.82e+02  3.32e+05   158s
  17   9.92326535e+07 -7.26478471e+08  1.01e+04 2.56e+02  3.02e+05   159s
  18   8.81182476e+07 -7.39907703e+08  9.22e+03 2.31e+02  2.74e+05   159s
  19   7.85053542e+07 -7.55317785e+08  8.39e+03 2.09e+02  2.48e+05   159s
  20   6.92466016e+07 -7.70404667e+08  7.55e+03 1.88e+02  2.23e+05   159s
  21   5.84955124e+07 -7.88455356e+08  6.54e+03 1.62e+02  1.92e+05   159s
  22   4.69594009e+07 -8.05325787e+08  5.39e+03 1.32e+02  1.59e+05   159s
  23   3.92133481e+07 -8.14460617e+08  4.58e+03 1.12e+02  1.35e+05   159s
  24   3.18830975e+07 -8.22185512e+08  3.80e+03 9.24e+01  1.12e+05   159s
  25   2.39517923e+07 -8.23193192e+08  2.90e+03 7.04e+01  8.64e+04   160s
  26   1.70221381e+07 -8.12447755e+08  2.65e+03 5.04e+01  6.29e+04   160s
  27   1.19203738e+07 -7.86819244e+08  2.36e+03 3.52e+01  4.47e+04   160s
  28   4.40930944e+06 -6.87592241e+08  1.28e+03 1.21e+01  2.09e+04   160s
  29   3.70402015e+06 -6.29168273e+08  1.03e+03 9.88e+00  1.72e+04   160s
  30   3.09997008e+06 -5.73103566e+08  8.31e+02 8.01e+00  1.41e+04   160s
  31   2.48513562e+06 -5.07775264e+08  6.31e+02 6.12e+00  1.09e+04   160s
  32   2.00399338e+06 -4.49019596e+08  4.76e+02 4.63e+00  8.34e+03   160s
  33   1.49942064e+06 -4.10898201e+08  2.90e+02 2.98e+00  6.03e+03   161s
  34   1.16058396e+06 -3.32381272e+08  1.76e+02 1.84e+00  3.87e+03   161s
  35   9.72731484e+05 -2.80403990e+08  1.02e+02 1.09e+00  2.59e+03   161s
  36   8.71750567e+05 -2.36324766e+08  6.61e+01 7.02e-01  1.88e+03   161s
  37   8.22898208e+05 -2.01252307e+08  4.68e+01 5.01e-01  1.47e+03   161s
  38   7.81236626e+05 -1.62630993e+08  3.06e+01 3.18e-01  1.08e+03   162s
  39   7.65922677e+05 -1.41715210e+08  2.29e+01 2.43e-01  9.02e+02   162s
  40   7.60712427e+05 -1.32083579e+08  2.02e+01 2.12e-01  8.26e+02   163s
  41   7.52568071e+05 -1.14778962e+08  1.57e+01 1.60e-01  6.96e+02   163s
  42   7.48002750e+05 -1.09378717e+08  1.18e+01 1.21e-01  6.48e+02   164s
  43   7.44776634e+05 -9.69026347e+07  8.05e+00 8.23e-02  5.64e+02   165s
  44   7.41299596e+05 -6.55108073e+07  4.17e+00 4.45e-02  3.72e+02   168s
  45   7.37924408e+05 -1.32257410e+07  3.56e-01 2.76e+00  7.41e+01   186s
  46   7.29110170e+05 -5.12795198e+03  1.69e-02 5.46e-01  3.88e+00   204s
  47   6.58417892e+05  4.00486212e+05  1.73e-03 2.30e-03  1.36e+00   223s
  48   6.35723916e+05  5.60464662e+05  2.60e-04 3.36e-04  3.97e-01   244s
  49   6.28083293e+05  6.02871645e+05  7.42e-05 5.34e-05  1.33e-01   281s
  50   6.25673377e+05  6.15609190e+05  7.47e-06 5.37e-06  5.31e-02   316s
  51   6.24586595e+05  6.21001363e+05  1.11e-06 7.97e-07  1.89e-02   351s
  52   6.24249620e+05  6.22511019e+05  1.47e-07 1.06e-07  9.17e-03   386s
  53   6.24106130e+05  6.23193947e+05  4.68e-10 1.12e-11  4.81e-03   420s
  54   6.24015313e+05  6.23635159e+05  5.34e-10 1.19e-11  2.00e-03   456s
  55   6.23980272e+05  6.23801693e+05  4.51e-10 4.05e-11  9.42e-04   488s
  56   6.23950128e+05  6.23945279e+05  5.76e-10 1.75e-10  2.56e-05   524s
  57   6.23949496e+05  6.23947977e+05  9.39e-09 2.36e-11  8.01e-06   561s
  58   6.23949232e+05  6.23949216e+05  1.17e-08 3.00e-11  8.39e-08   597s
  59   6.23949230e+05  6.23949227e+05  1.08e-07 4.82e-09  1.55e-08   631s
  60   6.23949229e+05  6.23949229e+05  3.64e-07 1.12e-08  2.52e-09   665s

Barrier solved model in 60 iterations and 664.54 seconds (839.56 work units)
Optimal objective 6.23949229e+05

